 start bh3_3-21++gs 
 title "test case"
 charge 0 

 geometry units au  
 B	0.55118	1.75893	0.0
 H	1.73229	1.75893	0.0
 H	-0.03938	1.76567	1.02285
 H	-0.03938	1.7522	-1.02285
 end  
 basis  
   * library 3-21++gs  
 end
 dft
 xc b3lyp
 mult 1
 end
task dft energy
