 start nh4_6-311++g 
 title "test case"
 charge 1 

 geometry units au  
 N	0.53599	1.84477	0.06448
 H	1.55633	1.74298	0.01495
 H	0.20733	2.39194	-0.73955
 H	0.2821	2.32776	0.93406
 H	0.09835	0.91626	0.04846
 end  
 basis  
   * library 6-311++g  
 end
 dft
 xc b3lyp
 mult 1
 end
task dft energy
